(set-info :source |printed by MathSAT|)
(declare-fun |!{$(in_main#0)<N>}| () Int)
(declare-fun |!{$(in_main#0)<N>}.next| () Int)
(declare-fun |!{$(in_main#0)<i>}| () Int)
(declare-fun |!{$(in_main#0)<i>}.next| () Int)
(declare-fun |!{$(in_main#0)<k>}| () Int)
(declare-fun |!{$(in_main#0)<k>}.next| () Int)
(declare-fun |!{$(in_main#0)<k#1>}| () Int)
(declare-fun |!{$(in_main#0)<k#1>}.next| () Int)
(declare-fun |!{$(in_main#0)<k#2>}| () Int)
(declare-fun |!{$(in_main#0)<k#2>}.next| () Int)
(declare-fun |!{$(in_main#0)<l>}| () Int)
(declare-fun |!{$(in_main#0)<l>}.next| () Int)
(declare-fun |!{$(in_main#0)<x>}| () Int)
(declare-fun |!{$(in_main#0)<x>}.next| () Int)
(declare-fun |!{$(in_main#0)<array.1>}| () (Array Int Int))
(declare-fun |!{$(in_main#0)<array.1>}.next| () (Array Int Int))
(declare-fun |!{$(in_main#0)<$(in___VERIFIER_nondet_int#0)<h#<__VERIFIER_nondet_int.return>>>}| () Int)
(declare-fun |!{$(in_main#0)<$(in___VERIFIER_nondet_int#2)<h#<__VERIFIER_nondet_int.return>>>}| () Int)
(declare-fun !pc () Int)
(declare-fun !pc.next () Int)
(declare-fun |%{$(in_main#0)<i>}#1| () Int)
(declare-fun |%{$(in_main#0)<k#1>}#1| () Int)
(declare-fun |%{$(in_main#0)<k#2>}#1| () Int)
(declare-fun |%{$(in_main#0)<l>}#1| () Int)
(declare-fun |%{$(in_main#0)<x>}#1| () Int)
(declare-fun |%{$(in_main#0)<array.1>}#1| () (Array Int Int))
(define-fun .def_40 () Int (! !pc :next !pc.next))
(define-fun .def_43 () Bool (! (= .def_40 2) :init true))
(define-fun .def_295 () Bool (= .def_40 42))
(define-fun .def_268 () Bool (= !pc.next 62))
(define-fun .def_298 () Bool (and .def_268 .def_295))
(define-fun .def_288 () Bool (= |!{$(in_main#0)<k#1>}.next| 1))
(define-fun .def_12 () Int (! |!{$(in_main#0)<k>}| :next |!{$(in_main#0)<k>}.next|))
(define-fun .def_93 () Bool (= .def_12 |!{$(in_main#0)<k>}.next|))
(define-fun .def_10 () Int (! |!{$(in_main#0)<i>}| :next |!{$(in_main#0)<i>}.next|))
(define-fun .def_91 () Bool (= .def_10 |!{$(in_main#0)<i>}.next|))
(define-fun .def_8 () Int (! |!{$(in_main#0)<N>}| :next |!{$(in_main#0)<N>}.next|))
(define-fun .def_90 () Bool (= .def_8 |!{$(in_main#0)<N>}.next|))
(define-fun .def_92 () Bool (and .def_90 .def_91))
(define-fun .def_94 () Bool (and .def_92 .def_93))
(define-fun .def_289 () Bool (and .def_94 .def_288))
(define-fun .def_16 () Int (! |!{$(in_main#0)<k#2>}| :next |!{$(in_main#0)<k#2>}.next|))
(define-fun .def_97 () Bool (= .def_16 |!{$(in_main#0)<k#2>}.next|))
(define-fun .def_290 () Bool (and .def_97 .def_289))
(define-fun .def_18 () Int (! |!{$(in_main#0)<l>}| :next |!{$(in_main#0)<l>}.next|))
(define-fun .def_113 () Bool (= .def_18 |!{$(in_main#0)<l>}.next|))
(define-fun .def_291 () Bool (and .def_113 .def_290))
(define-fun .def_20 () Int (! |!{$(in_main#0)<x>}| :next |!{$(in_main#0)<x>}.next|))
(define-fun .def_103 () Bool (= .def_20 |!{$(in_main#0)<x>}.next|))
(define-fun .def_292 () Bool (and .def_103 .def_291))
(define-fun .def_22 () (Array Int Int) (! |!{$(in_main#0)<array.1>}| :next |!{$(in_main#0)<array.1>}.next|))
(define-fun .def_105 () Bool (= .def_22 |!{$(in_main#0)<array.1>}.next|))
(define-fun .def_293 () Bool (and .def_105 .def_292))
(define-fun .def_273 () Bool (<= .def_8 .def_12))
(define-fun .def_294 () Bool (and .def_273 .def_293))
(define-fun .def_299 () Bool (and .def_294 .def_298))
(define-fun .def_80 () Bool (= !pc.next 42))
(define-fun .def_296 () Bool (and .def_80 .def_295))
(define-fun .def_275 () (Array Int Int) (store .def_22 .def_12 |!{$(in_main#0)<$(in___VERIFIER_nondet_int#2)<h#<__VERIFIER_nondet_int.return>>>}|))
(define-fun .def_285 () Bool (= |!{$(in_main#0)<array.1>}.next| .def_275))
(define-fun .def_277 () Int (* (- 1) |!{$(in_main#0)<k>}.next|))
(define-fun .def_278 () Int (+ .def_12 .def_277))
(define-fun .def_279 () Bool (= .def_278 (- 1)))
(define-fun .def_280 () Bool (and .def_92 .def_279))
(define-fun .def_14 () Int (! |!{$(in_main#0)<k#1>}| :next |!{$(in_main#0)<k#1>}.next|))
(define-fun .def_95 () Bool (= .def_14 |!{$(in_main#0)<k#1>}.next|))
(define-fun .def_281 () Bool (and .def_95 .def_280))
(define-fun .def_282 () Bool (and .def_97 .def_281))
(define-fun .def_283 () Bool (and .def_113 .def_282))
(define-fun .def_284 () Bool (and .def_103 .def_283))
(define-fun .def_286 () Bool (and .def_284 .def_285))
(define-fun .def_274 () Bool (not .def_273))
(define-fun .def_287 () Bool (and .def_274 .def_286))
(define-fun .def_297 () Bool (and .def_287 .def_296))
(define-fun .def_300 () Bool (or .def_297 .def_299))
(define-fun .def_265 () Bool (= .def_40 70))
(define-fun .def_269 () Bool (and .def_265 .def_268))
(define-fun .def_256 () Int (* (- 1) |!{$(in_main#0)<k#1>}.next|))
(define-fun .def_257 () Int (+ .def_14 .def_256))
(define-fun .def_258 () Bool (= .def_257 (- 1)))
(define-fun .def_259 () Bool (and .def_94 .def_258))
(define-fun .def_260 () Bool (and .def_97 .def_259))
(define-fun .def_261 () Bool (and .def_113 .def_260))
(define-fun .def_262 () Bool (and .def_103 .def_261))
(define-fun .def_263 () Bool (and .def_105 .def_262))
(define-fun .def_128 () Bool (<= .def_8 .def_18))
(define-fun .def_264 () Bool (and .def_128 .def_263))
(define-fun .def_270 () Bool (and .def_264 .def_269))
(define-fun .def_241 () Bool (= !pc.next 70))
(define-fun .def_266 () Bool (and .def_241 .def_265))
(define-fun .def_131 () Int (select .def_22 .def_18))
(define-fun .def_248 () Int (select .def_22 .def_14))
(define-fun .def_249 () Bool (<= .def_248 .def_131))
(define-fun .def_250 () Int (ite .def_249 1 0))
(define-fun .def_251 () Bool (= .def_250 0))
(define-fun .def_252 () Bool (not .def_251))
(define-fun .def_99 () Int (* (- 1) |!{$(in_main#0)<l>}.next|))
(define-fun .def_148 () Int (+ .def_18 .def_99))
(define-fun .def_149 () Bool (= .def_148 (- 1)))
(define-fun .def_96 () Bool (and .def_94 .def_95))
(define-fun .def_98 () Bool (and .def_96 .def_97))
(define-fun .def_150 () Bool (and .def_98 .def_149))
(define-fun .def_151 () Bool (and .def_103 .def_150))
(define-fun .def_152 () Bool (and .def_105 .def_151))
(define-fun .def_254 () Bool (and .def_152 .def_252))
(define-fun .def_129 () Bool (not .def_128))
(define-fun .def_255 () Bool (and .def_129 .def_254))
(define-fun .def_267 () Bool (and .def_255 .def_266))
(define-fun .def_271 () Bool (or .def_267 .def_270))
(define-fun .def_239 () Bool (= .def_40 62))
(define-fun .def_209 () Bool (= !pc.next 102))
(define-fun .def_244 () Bool (and .def_209 .def_239))
(define-fun .def_221 () Int (select .def_22 0))
(define-fun .def_234 () Bool (= |!{$(in_main#0)<x>}.next| .def_221))
(define-fun .def_228 () Bool (= |!{$(in_main#0)<i>}.next| 1))
(define-fun .def_229 () Bool (and .def_90 .def_228))
(define-fun .def_230 () Bool (and .def_93 .def_229))
(define-fun .def_231 () Bool (and .def_95 .def_230))
(define-fun .def_232 () Bool (and .def_97 .def_231))
(define-fun .def_233 () Bool (and .def_113 .def_232))
(define-fun .def_235 () Bool (and .def_233 .def_234))
(define-fun .def_236 () Bool (and .def_105 .def_235))
(define-fun .def_216 () Int (* (- 1) .def_14))
(define-fun .def_217 () Int (+ .def_8 .def_216))
(define-fun .def_218 () Bool (<= .def_217 1))
(define-fun .def_237 () Bool (and .def_218 .def_236))
(define-fun .def_245 () Bool (and .def_237 .def_244))
(define-fun .def_242 () Bool (and .def_239 .def_241))
(define-fun .def_222 () Int (+ .def_14 .def_99))
(define-fun .def_223 () Bool (= .def_222 (- 1)))
(define-fun .def_224 () Bool (and .def_98 .def_223))
(define-fun .def_225 () Bool (and .def_103 .def_224))
(define-fun .def_226 () Bool (and .def_105 .def_225))
(define-fun .def_219 () Bool (not .def_218))
(define-fun .def_227 () Bool (and .def_219 .def_226))
(define-fun .def_243 () Bool (and .def_227 .def_242))
(define-fun .def_246 () Bool (or .def_243 .def_245))
(define-fun .def_208 () Bool (= .def_40 102))
(define-fun .def_171 () Bool (= !pc.next 116))
(define-fun .def_212 () Bool (and .def_171 .def_208))
(define-fun .def_201 () Bool (= |!{$(in_main#0)<k#2>}.next| 0))
(define-fun .def_202 () Bool (and .def_96 .def_201))
(define-fun .def_203 () Bool (and .def_113 .def_202))
(define-fun .def_204 () Bool (and .def_103 .def_203))
(define-fun .def_205 () Bool (and .def_105 .def_204))
(define-fun .def_180 () Int (select .def_22 .def_10))
(define-fun .def_181 () Bool (<= .def_20 .def_180))
(define-fun .def_182 () Bool (not .def_181))
(define-fun .def_178 () Bool (<= .def_8 .def_10))
(define-fun .def_179 () Bool (not .def_178))
(define-fun .def_183 () Bool (and .def_179 .def_182))
(define-fun .def_188 () Bool (not .def_183))
(define-fun .def_206 () Bool (and .def_188 .def_205))
(define-fun .def_213 () Bool (and .def_206 .def_212))
(define-fun .def_210 () Bool (and .def_208 .def_209))
(define-fun .def_184 () Int (+ .def_10 (- 1)))
(define-fun .def_185 () Int (select .def_22 .def_184))
(define-fun .def_186 () (Array Int Int) (store .def_22 .def_10 .def_185))
(define-fun .def_198 () Bool (= |!{$(in_main#0)<array.1>}.next| .def_186))
(define-fun .def_189 () Int (* (- 1) |!{$(in_main#0)<i>}.next|))
(define-fun .def_190 () Int (+ .def_10 .def_189))
(define-fun .def_191 () Bool (= .def_190 (- 1)))
(define-fun .def_192 () Bool (and .def_90 .def_191))
(define-fun .def_193 () Bool (and .def_93 .def_192))
(define-fun .def_194 () Bool (and .def_95 .def_193))
(define-fun .def_195 () Bool (and .def_97 .def_194))
(define-fun .def_196 () Bool (and .def_113 .def_195))
(define-fun .def_197 () Bool (and .def_103 .def_196))
(define-fun .def_199 () Bool (and .def_197 .def_198))
(define-fun .def_200 () Bool (and .def_183 .def_199))
(define-fun .def_211 () Bool (and .def_200 .def_210))
(define-fun .def_214 () Bool (or .def_211 .def_213))
(define-fun .def_163 () Bool (= .def_40 124))
(define-fun .def_172 () Bool (and .def_163 .def_171))
(define-fun .def_155 () Int (* (- 1) |!{$(in_main#0)<k#2>}.next|))
(define-fun .def_156 () Int (+ .def_16 .def_155))
(define-fun .def_157 () Bool (= .def_156 (- 1)))
(define-fun .def_158 () Bool (and .def_96 .def_157))
(define-fun .def_159 () Bool (and .def_113 .def_158))
(define-fun .def_160 () Bool (and .def_103 .def_159))
(define-fun .def_161 () Bool (and .def_105 .def_160))
(define-fun .def_162 () Bool (and .def_128 .def_161))
(define-fun .def_173 () Bool (and .def_162 .def_172))
(define-fun .def_120 () Bool (= !pc.next 124))
(define-fun .def_168 () Bool (and .def_120 .def_163))
(define-fun .def_130 () Int (select .def_22 .def_16))
(define-fun .def_132 () Bool (<= .def_130 .def_131))
(define-fun .def_133 () Int (ite .def_132 1 0))
(define-fun .def_134 () Bool (= .def_133 0))
(define-fun .def_135 () Bool (not .def_134))
(define-fun .def_153 () Bool (and .def_135 .def_152))
(define-fun .def_154 () Bool (and .def_129 .def_153))
(define-fun .def_169 () Bool (and .def_154 .def_168))
(define-fun .def_165 () Bool (= !pc.next 144))
(define-fun .def_166 () Bool (and .def_163 .def_165))
(define-fun .def_139 () Bool (and .def_90 .def_134))
(define-fun .def_140 () Bool (and .def_91 .def_139))
(define-fun .def_141 () Bool (and .def_93 .def_140))
(define-fun .def_142 () Bool (and .def_95 .def_141))
(define-fun .def_143 () Bool (and .def_97 .def_142))
(define-fun .def_144 () Bool (and .def_113 .def_143))
(define-fun .def_145 () Bool (and .def_103 .def_144))
(define-fun .def_146 () Bool (and .def_105 .def_145))
(define-fun .def_147 () Bool (and .def_129 .def_146))
(define-fun .def_167 () Bool (and .def_147 .def_166))
(define-fun .def_170 () Bool (or .def_167 .def_169))
(define-fun .def_174 () Bool (or .def_170 .def_173))
(define-fun .def_123 () Bool (= !pc.next 0))
(define-fun .def_118 () Bool (= .def_40 116))
(define-fun .def_124 () Bool (and .def_118 .def_123))
(define-fun .def_85 () Int (* (- 1) .def_16))
(define-fun .def_86 () Int (+ .def_8 .def_85))
(define-fun .def_87 () Bool (<= .def_86 1))
(define-fun .def_108 () Bool (and .def_87 .def_90))
(define-fun .def_109 () Bool (and .def_91 .def_108))
(define-fun .def_110 () Bool (and .def_93 .def_109))
(define-fun .def_111 () Bool (and .def_95 .def_110))
(define-fun .def_112 () Bool (and .def_97 .def_111))
(define-fun .def_114 () Bool (and .def_112 .def_113))
(define-fun .def_115 () Bool (and .def_103 .def_114))
(define-fun .def_116 () Bool (and .def_105 .def_115))
(define-fun .def_125 () Bool (and .def_116 .def_124))
(define-fun .def_121 () Bool (and .def_118 .def_120))
(define-fun .def_100 () Int (+ .def_16 .def_99))
(define-fun .def_101 () Bool (= .def_100 (- 1)))
(define-fun .def_102 () Bool (and .def_98 .def_101))
(define-fun .def_104 () Bool (and .def_102 .def_103))
(define-fun .def_106 () Bool (and .def_104 .def_105))
(define-fun .def_88 () Bool (not .def_87))
(define-fun .def_107 () Bool (and .def_88 .def_106))
(define-fun .def_122 () Bool (and .def_107 .def_121))
(define-fun .def_126 () Bool (or .def_122 .def_125))
(define-fun .def_81 () Bool (and .def_43 .def_80))
(define-fun .def_76 () Bool (= |!{$(in_main#0)<array.1>}.next| |%{$(in_main#0)<array.1>}#1|))
(define-fun .def_74 () Bool (= |!{$(in_main#0)<x>}.next| |%{$(in_main#0)<x>}#1|))
(define-fun .def_72 () Bool (= |!{$(in_main#0)<l>}.next| |%{$(in_main#0)<l>}#1|))
(define-fun .def_70 () Bool (= |!{$(in_main#0)<k#2>}.next| |%{$(in_main#0)<k#2>}#1|))
(define-fun .def_68 () Bool (= |!{$(in_main#0)<k#1>}.next| |%{$(in_main#0)<k#1>}#1|))
(define-fun .def_66 () Bool (= |!{$(in_main#0)<k>}.next| 0))
(define-fun .def_64 () Bool (= |!{$(in_main#0)<i>}.next| |%{$(in_main#0)<i>}#1|))
(define-fun .def_63 () Bool (= |!{$(in_main#0)<N>}.next| |!{$(in_main#0)<$(in___VERIFIER_nondet_int#0)<h#<__VERIFIER_nondet_int.return>>>}|))
(define-fun .def_65 () Bool (and .def_63 .def_64))
(define-fun .def_67 () Bool (and .def_65 .def_66))
(define-fun .def_69 () Bool (and .def_67 .def_68))
(define-fun .def_71 () Bool (and .def_69 .def_70))
(define-fun .def_73 () Bool (and .def_71 .def_72))
(define-fun .def_75 () Bool (and .def_73 .def_74))
(define-fun .def_77 () Bool (and .def_75 .def_76))
(define-fun .def_58 () Bool (<= |!{$(in_main#0)<$(in___VERIFIER_nondet_int#0)<h#<__VERIFIER_nondet_int.return>>>}| 0))
(define-fun .def_59 () Bool (not .def_58))
(define-fun .def_60 () Int (ite .def_59 1 0))
(define-fun .def_61 () Bool (= .def_60 0))
(define-fun .def_62 () Bool (not .def_61))
(define-fun .def_78 () Bool (and .def_62 .def_77))
(define-fun .def_82 () Bool (and .def_78 .def_81))
(define-fun .def_127 () Bool (or .def_82 .def_126))
(define-fun .def_175 () Bool (or .def_127 .def_174))
(define-fun .def_215 () Bool (or .def_175 .def_214))
(define-fun .def_247 () Bool (or .def_215 .def_246))
(define-fun .def_272 () Bool (or .def_247 .def_271))
(define-fun .def_301 () Bool (! (or .def_272 .def_300) :trans true))
(define-fun .def_176 () Bool (= .def_40 144))
(define-fun .def_302 () Bool (! (not .def_176) :invar-property 0 :invar-property-name ||))
(assert true)
